Total weight: 1015.0678673579844
Route 1: 0 27 52 18 84 61 16 44 42 57 22 75 56 23 67 39 4 88 7 48 47 36 49 10 32 66 20 50 77 74 43 100 91 17 60 89 0 
Route 2: 0 69 31 62 11 64 19 82 83 5 87 2 73 72 41 15 14 38 86 45 8 46 63 90 30 70 1 3 68 80 55 25 21 40 53 0 
Route 3: 0 28 12 76 79 33 81 51 9 71 65 35 34 78 29 24 54 26 58 13 0 
Route 4: 0 6 94 95 97 92 37 98 85 93 59 99 96 0 
